output (([show(penSum)]++[show(queens)])++[if j==1 then "\n" else "" endif++if fix(queens[i])==j then "Q" else "#" endif | i in 1..n, j in 1..n, ])++["\n"];
int: n = 8;
array [1..n] of int: queens;
set of int: SOFTCONSTRAINTS = 1..3;
array [SOFTCONSTRAINTS] of bool: satisfied;
array [SOFTCONSTRAINTS] of int: penalties = [3,1,1];
int: penSum = sum([bool2int(not satisfied[sc])*penalties[sc] | sc in SOFTCONSTRAINTS, ]);
